# vtk DataFile Version 3.1
for Floating Node Method output
ASCII
DATASET UNSTRUCTURED_GRID
POINTS    12 FLOAT
   0.0000000000000000        0.0000000000000000        0.0000000000000000     
   1.0000000000000000        0.0000000000000000        0.0000000000000000     
   0.0000000000000000        1.0000000000000000        0.0000000000000000     
   1.0000000000000000        1.0000000000000000        0.0000000000000000     
   0.0000000000000000        2.0000000000000000        0.0000000000000000     
   1.0000000000000000        2.0000000000000000        0.0000000000000000     
   0.0000000000000000        0.0000000000000000        1.0000000000000000     
   1.0000000000000000        0.0000000000000000        1.0000000000000000     
   0.0000000000000000        1.0000000000000000        1.0000000000000000     
   1.0000000000000000        1.0000000000000000        1.0000000000000000     
   0.0000000000000000        2.0000000000000000        1.0000000000000000     
   1.0000000000000000        2.0000000000000000        1.0000000000000000     

CELLS     3   23
           6           0           1           2           6           7           8
           6           1           3           2           7           9           8
           8           2           3           5           4           8           9          11          10

CELL_TYPES     3
13
13
12

POINT_DATA    12
VECTORS displacement float
   0.0000000000000000        0.0000000000000000        0.0000000000000000     
   0.0000000000000000        0.0000000000000000        0.0000000000000000     
   0.0000000000000000        0.0000000000000000       0.10000000000000001     
   0.0000000000000000        0.0000000000000000       0.10000000000000001     
   0.0000000000000000        0.0000000000000000        0.0000000000000000     
   0.0000000000000000        0.0000000000000000        0.0000000000000000     
   0.0000000000000000        0.0000000000000000        0.0000000000000000     
   0.0000000000000000        0.0000000000000000        0.0000000000000000     
   0.0000000000000000        0.0000000000000000       0.10000000000000001     
   0.0000000000000000        0.0000000000000000       0.10000000000000001     
   0.0000000000000000        0.0000000000000000        0.0000000000000000     
   0.0000000000000000        0.0000000000000000        0.0000000000000000     

CELL_DATA     3
TENSORS stress float
   0.0000000000000000        0.0000000000000000        0.0000000000000000     
   0.0000000000000000        0.0000000000000000        5.0000000000000000     
   0.0000000000000000        5.0000000000000000        0.0000000000000000     

   0.0000000000000000        0.0000000000000000        0.0000000000000000     
   0.0000000000000000        0.0000000000000000        5.0000000000000000     
   0.0000000000000000        5.0000000000000000        0.0000000000000000     

   0.0000000000000000        0.0000000000000000        4.0000000000000000     
   0.0000000000000000        0.0000000000000000        5.1816800091149251E-013
   4.0000000000000000        5.1816800091149251E-013   5.2041704279304213E-016

TENSORS strain float
   0.0000000000000000        0.0000000000000000        0.0000000000000000     
   0.0000000000000000        0.0000000000000000        9.9999999999999992E-002
   0.0000000000000000        9.9999999999999992E-002   0.0000000000000000     

   0.0000000000000000        0.0000000000000000        0.0000000000000000     
   0.0000000000000000        0.0000000000000000        9.9999999999999992E-002
   0.0000000000000000        9.9999999999999992E-002   0.0000000000000000     

   0.0000000000000000        0.0000000000000000        9.9999999999999992E-002
   0.0000000000000000        0.0000000000000000        1.0363360018229850E-014
   9.9999999999999992E-002   1.0363360018229850E-014   5.2041704279304213E-018

