# vtk DataFile Version 3.1
for Floating Node Method output
ASCII
DATASET UNSTRUCTURED_GRID
POINTS    12 FLOAT
   0.0000000000000000        0.0000000000000000        0.0000000000000000     
   1.0000000000000000        0.0000000000000000        0.0000000000000000     
   0.0000000000000000        0.0000000000000000        0.0000000000000000     
   1.0000000000000000        0.0000000000000000        0.0000000000000000     
   0.0000000000000000        0.0000000000000000        0.0000000000000000     
   0.0000000000000000        0.0000000000000000        0.0000000000000000     
   0.0000000000000000        0.0000000000000000        0.0000000000000000     
   0.0000000000000000        0.0000000000000000        0.0000000000000000     
   0.0000000000000000        0.0000000000000000        0.0000000000000000     
   0.0000000000000000        0.0000000000000000        0.0000000000000000     
   0.0000000000000000        0.0000000000000000        0.0000000000000000     
   0.0000000000000000        0.0000000000000000        0.0000000000000000     

CELLS     1    5
           4           0           1           3           2

CELL_TYPES     1
 9

POINT_DATA    12
VECTORS displacement float
   0.0000000000000000        0.0000000000000000        0.0000000000000000     
   0.0000000000000000        0.0000000000000000        0.0000000000000000     
  0.20000000000000001       0.10000000000000001        0.0000000000000000     
  0.20000000000000001       0.10000000000000001        0.0000000000000000     
   0.0000000000000000        0.0000000000000000        0.0000000000000000     
   0.0000000000000000        0.0000000000000000        0.0000000000000000     
   0.0000000000000000        0.0000000000000000        0.0000000000000000     
   0.0000000000000000        0.0000000000000000        0.0000000000000000     
   0.0000000000000000        0.0000000000000000        0.0000000000000000     
   0.0000000000000000        0.0000000000000000        0.0000000000000000     
   0.0000000000000000        0.0000000000000000        0.0000000000000000     
   0.0000000000000000        0.0000000000000000        0.0000000000000000     

CELL_DATA     1
TENSORS stress float
   0.0000000000000000        0.0000000000000000        0.0000000000000000     
   0.0000000000000000        0.0000000000000000        0.0000000000000000     
   0.0000000000000000        0.0000000000000000        0.0000000000000000     

TENSORS strain float
   0.0000000000000000       0.20000000000000001        0.0000000000000000     
  0.20000000000000001       0.10000000000000001        0.0000000000000000     
   0.0000000000000000        0.0000000000000000        0.0000000000000000     

SCALARS fstat float
   10.000000000000000     

SCALARS dm float
   1.0000000000000000     

SCALARS u0 float
   8.4089641525371447E-002

SCALARS uf float
  0.17362423879039729     

