# vtk DataFile Version 3.1
for Floating Node Method output
ASCII
DATASET UNSTRUCTURED_GRID
POINTS    40 FLOAT
   0.0000000000000000        0.0000000000000000        0.0000000000000000     
  0.50000000000000000        0.0000000000000000        0.0000000000000000     
   0.0000000000000000       0.50000000000000000        0.0000000000000000     
  0.50000000000000000       0.50000000000000000        0.0000000000000000     
   0.0000000000000000        1.0000000000000000        0.0000000000000000     
  0.50000000000000000        1.0000000000000000        0.0000000000000000     
   0.0000000000000000        0.0000000000000000       0.25000000000000000     
  0.50000000000000000        0.0000000000000000       0.25000000000000000     
   0.0000000000000000       0.50000000000000000       0.25000000000000000     
  0.50000000000000000       0.50000000000000000       0.25000000000000000     
   0.0000000000000000        1.0000000000000000       0.25000000000000000     
  0.50000000000000000        1.0000000000000000       0.25000000000000000     
   5.0000000000000003E-002   0.0000000000000000        0.0000000000000000     
   5.0000000000000003E-002   0.0000000000000000        0.0000000000000000     
   0.0000000000000000        0.0000000000000000        0.0000000000000000     
   0.0000000000000000        0.0000000000000000        0.0000000000000000     
  0.45000000000000001       0.50000000000000000        0.0000000000000000     
  0.45000000000000001       0.50000000000000000        0.0000000000000000     
   0.0000000000000000        0.0000000000000000        0.0000000000000000     
   0.0000000000000000        0.0000000000000000        0.0000000000000000     
   5.0000000000000003E-002   0.0000000000000000       0.25000000000000000     
   5.0000000000000003E-002   0.0000000000000000       0.25000000000000000     
   0.0000000000000000        0.0000000000000000        0.0000000000000000     
   0.0000000000000000        0.0000000000000000        0.0000000000000000     
  0.45000000000000001       0.50000000000000000       0.25000000000000000     
  0.45000000000000001       0.50000000000000000       0.25000000000000000     
   0.0000000000000000        0.0000000000000000        0.0000000000000000     
   0.0000000000000000        0.0000000000000000        0.0000000000000000     
  0.50000000000000000       0.55000000000000515        0.0000000000000000     
  0.50000000000000000       0.55000000000000515        0.0000000000000000     
   0.0000000000000000        0.0000000000000000        0.0000000000000000     
   0.0000000000000000        0.0000000000000000        0.0000000000000000     
   0.0000000000000000        0.0000000000000000        0.0000000000000000     
   0.0000000000000000        0.0000000000000000        0.0000000000000000     
  0.50000000000000000       0.55000000000000515       0.25000000000000000     
  0.50000000000000000       0.55000000000000515       0.25000000000000000     
   0.0000000000000000        0.0000000000000000        0.0000000000000000     
   0.0000000000000000        0.0000000000000000        0.0000000000000000     
   0.0000000000000000        0.0000000000000000        0.0000000000000000     
   0.0000000000000000        0.0000000000000000        0.0000000000000000     

CELLS     8   64
  8  0 12 17  2  6 20 25  8
  8 13  1  3 16 21  7  9 24
  8 17 12 20 25 16 13 21 24
  6 16  3 28 24  9 34
  6 29  5  4 35 11 10
  6  4  2 17 10  8 25
  6 17 29  4 25 35 10
  8 16 28 34 24 17 29 35 25

CELL_TYPES     8
12
12
12
13
13
13
13
12

POINT_DATA    40
VECTORS displacement float
   0.0000000000000000        0.0000000000000000        0.0000000000000000     
   9.0000000000000011E-003   0.0000000000000000        0.0000000000000000     
   0.0000000000000000        0.0000000000000000        0.0000000000000000     
   9.0000000000000011E-003   0.0000000000000000        0.0000000000000000     
   0.0000000000000000        0.0000000000000000        0.0000000000000000     
   9.0000000000000011E-003   0.0000000000000000        0.0000000000000000     
   0.0000000000000000        0.0000000000000000        0.0000000000000000     
   9.0000000000000011E-003   0.0000000000000000        0.0000000000000000     
   0.0000000000000000        0.0000000000000000        0.0000000000000000     
   9.0000000000000011E-003   0.0000000000000000        0.0000000000000000     
   0.0000000000000000        0.0000000000000000        0.0000000000000000     
   9.0000000000000011E-003   0.0000000000000000        0.0000000000000000     
   0.0000000000000000        0.0000000000000000        0.0000000000000000     
   0.0000000000000000        0.0000000000000000        0.0000000000000000     
   0.0000000000000000        0.0000000000000000        0.0000000000000000     
   0.0000000000000000        0.0000000000000000        0.0000000000000000     
   0.0000000000000000        0.0000000000000000        0.0000000000000000     
   0.0000000000000000        0.0000000000000000        0.0000000000000000     
   0.0000000000000000        0.0000000000000000        0.0000000000000000     
   0.0000000000000000        0.0000000000000000        0.0000000000000000     
   0.0000000000000000        0.0000000000000000        0.0000000000000000     
   0.0000000000000000        0.0000000000000000        0.0000000000000000     
   0.0000000000000000        0.0000000000000000        0.0000000000000000     
   0.0000000000000000        0.0000000000000000        0.0000000000000000     
   0.0000000000000000        0.0000000000000000        0.0000000000000000     
   0.0000000000000000        0.0000000000000000        0.0000000000000000     
   0.0000000000000000        0.0000000000000000        0.0000000000000000     
   0.0000000000000000        0.0000000000000000        0.0000000000000000     
   0.0000000000000000        0.0000000000000000        0.0000000000000000     
   0.0000000000000000        0.0000000000000000        0.0000000000000000     
   0.0000000000000000        0.0000000000000000        0.0000000000000000     
   0.0000000000000000        0.0000000000000000        0.0000000000000000     
   0.0000000000000000        0.0000000000000000        0.0000000000000000     
   0.0000000000000000        0.0000000000000000        0.0000000000000000     
   0.0000000000000000        0.0000000000000000        0.0000000000000000     
   0.0000000000000000        0.0000000000000000        0.0000000000000000     
   0.0000000000000000        0.0000000000000000        0.0000000000000000     
   0.0000000000000000        0.0000000000000000        0.0000000000000000     
   0.0000000000000000        0.0000000000000000        0.0000000000000000     
   0.0000000000000000        0.0000000000000000        0.0000000000000000     

CELL_DATA     8
TENSORS stress float
   0.0000000000000000        0.0000000000000000        0.0000000000000000     
   0.0000000000000000        0.0000000000000000        0.0000000000000000     
   0.0000000000000000        0.0000000000000000        0.0000000000000000     

   1913.5195048930464       -236.59322033897340       -2.9726726115947338E-016
  -236.59322033897340        524.09192134457589       -2.2884404244000520E-016
  -2.9726726115947338E-016  -2.2884404244000520E-016   268.71678800332188     

   0.0000000000000000        0.0000000000000000        0.0000000000000000     
   0.0000000000000000        0.0000000000000000        0.0000000000000000     
   0.0000000000000000        0.0000000000000000        0.0000000000000000     

   1182.0731147708091       -930.59999999990396        2.9171827228449692E-013
  -930.59999999990396        2564.4717593119171        2.2457228698112537E-013
   2.9171827228449692E-013   2.2457228698112537E-013   1129.5067243468818     

   3132.2885331156617       -93.060000000010731       -3.4879358642711587E-014
  -93.060000000010731        110.52731900741502       -2.6851034312960638E-014
  -3.4879358642711587E-014  -2.6851034312960638E-014   118.49934697943648     

   0.0000000000000000        0.0000000000000000        0.0000000000000000     
   0.0000000000000000        0.0000000000000000        0.0000000000000000     
   0.0000000000000000        0.0000000000000000        0.0000000000000000     

   0.0000000000000000        0.0000000000000000        0.0000000000000000     
   0.0000000000000000        0.0000000000000000        0.0000000000000000     
   0.0000000000000000        0.0000000000000000        0.0000000000000000     

   0.0000000000000000        0.0000000000000000        0.0000000000000000     
   0.0000000000000000        0.0000000000000000        0.0000000000000000     
   0.0000000000000000        0.0000000000000000        0.0000000000000000     

TENSORS strain float
   0.0000000000000000        0.0000000000000000        0.0000000000000000     
   0.0000000000000000        0.0000000000000000        0.0000000000000000     
   0.0000000000000000        0.0000000000000000        0.0000000000000000     

   1.3728813559319668E-002  -4.5762711864404913E-002  -5.7498503125623478E-020
  -4.5762711864404913E-002   3.2033898305087127E-002  -5.7498503125629448E-020
  -5.7498503125623478E-020  -5.7498503125629448E-020   0.0000000000000000     

   0.0000000000000000        0.0000000000000000        0.0000000000000000     
   0.0000000000000000        0.0000000000000000        0.0000000000000000     
   0.0000000000000000        0.0000000000000000        0.0000000000000000     

  -4.1633363423443370E-017 -0.17999999999998142        5.6425197733945245E-017
 -0.17999999999998142       0.18000000000000010        5.6425197733951099E-017
   5.6425197733945245E-017   5.6425197733951099E-017   0.0000000000000000     

   1.8999999999999188E-002  -1.8000000000002077E-002  -6.7464910334064968E-018
  -1.8000000000002077E-002  -9.9999999999918383E-004  -6.7464910334071963E-018
  -6.7464910334064968E-018  -6.7464910334071963E-018   0.0000000000000000     

   0.0000000000000000        0.0000000000000000        0.0000000000000000     
   0.0000000000000000        0.0000000000000000        0.0000000000000000     
   0.0000000000000000        0.0000000000000000        0.0000000000000000     

   0.0000000000000000        0.0000000000000000        0.0000000000000000     
   0.0000000000000000        0.0000000000000000        0.0000000000000000     
   0.0000000000000000        0.0000000000000000        0.0000000000000000     

   0.0000000000000000        0.0000000000000000        0.0000000000000000     
   0.0000000000000000        0.0000000000000000        0.0000000000000000     
   0.0000000000000000        0.0000000000000000        0.0000000000000000     

SCALARS fstat float
LOOKUP_TABLE default
   0.0000000000000000     
   7.5000000000000000     
   0.0000000000000000     
   5.0000000000000000     
   15.000000000000000     
   0.0000000000000000     
   0.0000000000000000     
   0.0000000000000000     
SCALARS dm float
LOOKUP_TABLE default
   0.0000000000000000     
  0.11490440314908927     
   0.0000000000000000     
   0.0000000000000000     
   0.0000000000000000     
   0.0000000000000000     
   0.0000000000000000     
   0.0000000000000000     
SCALARS u0 float
LOOKUP_TABLE default
   0.0000000000000000     
   2.8962618942343209E-003
   0.0000000000000000     
   0.0000000000000000     
  -6.3512139499520852E-004
   0.0000000000000000     
   0.0000000000000000     
   0.0000000000000000     
SCALARS uf float
LOOKUP_TABLE default
   0.0000000000000000     
   1.6619929566326425E-002
   0.0000000000000000     
   0.0000000000000000     
   6.7533630868900241E-002
   0.0000000000000000     
   0.0000000000000000     
   0.0000000000000000     
