# vtk DataFile Version 3.1
for Floating Node Method output
ASCII
DATASET UNSTRUCTURED_GRID
POINTS    12 FLOAT
   0.0000000000000000        0.0000000000000000        0.0000000000000000     
   1.0000000000000000        0.0000000000000000        0.0000000000000000     
   0.0000000000000000        1.0000000000000000        0.0000000000000000     
   1.0000000000000000        1.0000000000000000        0.0000000000000000     
   0.0000000000000000        2.0000000000000000        0.0000000000000000     
   1.0000000000000000        2.0000000000000000        0.0000000000000000     
   0.0000000000000000        0.0000000000000000        0.0000000000000000     
   1.0000000000000000        0.0000000000000000        0.0000000000000000     
   0.0000000000000000        1.0000000000000000        0.0000000000000000     
   1.0000000000000000        1.0000000000000000        0.0000000000000000     
   0.0000000000000000        2.0000000000000000        0.0000000000000000     
   1.0000000000000000        2.0000000000000000        0.0000000000000000     

CELLS     3   23
           6           0           1           2           6           7           8
           6           1           3           2           7           9           8
           8           2           3           5           4           8           9          11          10

CELL_TYPES     3
13
13
12

POINT_DATA    12
VECTORS displacement float
   0.0000000000000000        0.0000000000000000        0.0000000000000000     
   0.0000000000000000        0.0000000000000000        0.0000000000000000     
   0.0000000000000000        0.0000000000000000        0.0000000000000000     
   0.0000000000000000        0.0000000000000000        0.0000000000000000     
   0.0000000000000000        0.0000000000000000        0.0000000000000000     
   0.0000000000000000        0.0000000000000000        0.0000000000000000     
  -7.0000000000000007E-002   7.0000000000000007E-002   7.0000000000000007E-002
  -7.0000000000000007E-002   7.0000000000000007E-002   7.0000000000000007E-002
  -7.0000000000000007E-002   7.0000000000000007E-002   7.0000000000000007E-002
  -7.0000000000000007E-002   7.0000000000000007E-002   7.0000000000000007E-002
  -7.0000000000000007E-002   7.0000000000000007E-002   7.0000000000000007E-002
  -7.0000000000000007E-002   7.0000000000000007E-002   7.0000000000000007E-002

CELL_DATA     3
TENSORS stress float
   0.0000000000000000       -1.7759604607994983        0.0000000000000000     
  -1.7759604607994983        1.7759604607994983        0.0000000000000000     
   0.0000000000000000        0.0000000000000000        0.0000000000000000     

   0.0000000000000000        0.0000000000000000        0.0000000000000000     
   0.0000000000000000        1.7759604607994959        0.0000000000000000     
   0.0000000000000000        0.0000000000000000        0.0000000000000000     

   0.0000000000000000       -1.7759604607994983        0.0000000000000000     
  -1.7759604607994983        1.7759604607994983        0.0000000000000000     
   0.0000000000000000        0.0000000000000000        0.0000000000000000     

TENSORS strain float
   0.0000000000000000       -7.0000000000000007E-002   0.0000000000000000     
  -7.0000000000000007E-002   7.0000000000000007E-002   0.0000000000000000     
   0.0000000000000000        0.0000000000000000        0.0000000000000000     

   0.0000000000000000        0.0000000000000000        0.0000000000000000     
   0.0000000000000000        7.0000000000000007E-002   0.0000000000000000     
   0.0000000000000000        0.0000000000000000        0.0000000000000000     

   0.0000000000000000       -7.0000000000000007E-002   0.0000000000000000     
  -7.0000000000000007E-002   7.0000000000000007E-002   0.0000000000000000     
   0.0000000000000000        0.0000000000000000        0.0000000000000000     

SCALARS fstat float
LOOKUP_TABLE default
   5.0000000000000000     
   5.0000000000000000     

   5.0000000000000000     

SCALARS dm float
LOOKUP_TABLE default
  0.74629136274292884     
  0.74629136274292918     

  0.74629136274292884     

SCALARS u0 float
LOOKUP_TABLE default
   7.8254229003664383E-002
   7.8254229003664369E-002

   7.8254229003664383E-002

SCALARS uf float
LOOKUP_TABLE default
  0.14908672432413023     
  0.14908672432413020     

  0.14908672432413023     

