# vtk DataFile Version 3.1
for Floating Node Method output
ASCII
DATASET UNSTRUCTURED_GRID
POINTS    40 FLOAT
   0.0000000000000000        0.0000000000000000        0.0000000000000000     
  0.50000000000000000        0.0000000000000000        0.0000000000000000     
   0.0000000000000000       0.50000000000000000        0.0000000000000000     
  0.50000000000000000       0.50000000000000000        0.0000000000000000     
   0.0000000000000000        1.0000000000000000        0.0000000000000000     
  0.50000000000000000        1.0000000000000000        0.0000000000000000     
   0.0000000000000000        0.0000000000000000       0.25000000000000000     
  0.50000000000000000        0.0000000000000000       0.25000000000000000     
   0.0000000000000000       0.50000000000000000       0.25000000000000000     
  0.50000000000000000       0.50000000000000000       0.25000000000000000     
   0.0000000000000000        1.0000000000000000       0.25000000000000000     
  0.50000000000000000        1.0000000000000000       0.25000000000000000     
   0.0000000000000000        0.0000000000000000        0.0000000000000000     
   0.0000000000000000        0.0000000000000000        0.0000000000000000     
  0.50000000000000000       0.45000000000000001        0.0000000000000000     
  0.50000000000000000       0.45000000000000001        0.0000000000000000     
   5.0000000000000003E-002  0.50000000000000000        0.0000000000000000     
   5.0000000000000003E-002  0.50000000000000000        0.0000000000000000     
   0.0000000000000000        0.0000000000000000        0.0000000000000000     
   0.0000000000000000        0.0000000000000000        0.0000000000000000     
   0.0000000000000000        0.0000000000000000        0.0000000000000000     
   0.0000000000000000        0.0000000000000000        0.0000000000000000     
  0.50000000000000000       0.45000000000000001       0.25000000000000000     
  0.50000000000000000       0.45000000000000001       0.25000000000000000     
   5.0000000000000003E-002  0.50000000000000000       0.25000000000000000     
   5.0000000000000003E-002  0.50000000000000000       0.25000000000000000     
   0.0000000000000000        0.0000000000000000        0.0000000000000000     
   0.0000000000000000        0.0000000000000000        0.0000000000000000     
   0.0000000000000000        0.0000000000000000        0.0000000000000000     
   0.0000000000000000        0.0000000000000000        0.0000000000000000     
  0.45000000000000001        1.0000000000000000        0.0000000000000000     
  0.45000000000000001        1.0000000000000000        0.0000000000000000     
   0.0000000000000000        0.0000000000000000        0.0000000000000000     
   0.0000000000000000        0.0000000000000000        0.0000000000000000     
   0.0000000000000000        0.0000000000000000        0.0000000000000000     
   0.0000000000000000        0.0000000000000000        0.0000000000000000     
  0.45000000000000001        1.0000000000000000       0.25000000000000000     
  0.45000000000000001        1.0000000000000000       0.25000000000000000     
   0.0000000000000000        0.0000000000000000        0.0000000000000000     
   0.0000000000000000        0.0000000000000000        0.0000000000000000     

CELLS     8   64
  6 15  3 16 23  9 24
  6 17  2  0 25  8  6
  6  0  1 14  6  7 22
  6 14 17  0 22 25  6
  8 15 16 24 23 14 17 25 22
  8  2 17 31  4  8 25 37 10
  8 16  3  5 30 24  9 11 36
  8 31 17 25 37 30 16 24 36

CELL_TYPES     8
13
13
13
13
12
12
12
12

POINT_DATA    40
VECTORS displacement float
   0.0000000000000000        0.0000000000000000        0.0000000000000000     
   7.0000000000000001E-003   0.0000000000000000        0.0000000000000000     
   0.0000000000000000        0.0000000000000000        0.0000000000000000     
   7.0000000000000001E-003   0.0000000000000000        0.0000000000000000     
   0.0000000000000000        0.0000000000000000        0.0000000000000000     
   7.0000000000000001E-003   0.0000000000000000        0.0000000000000000     
   0.0000000000000000        0.0000000000000000        0.0000000000000000     
   7.0000000000000001E-003   0.0000000000000000        0.0000000000000000     
   0.0000000000000000        0.0000000000000000        0.0000000000000000     
   7.0000000000000001E-003   0.0000000000000000        0.0000000000000000     
   0.0000000000000000        0.0000000000000000        0.0000000000000000     
   7.0000000000000001E-003   0.0000000000000000        0.0000000000000000     
   0.0000000000000000        0.0000000000000000        0.0000000000000000     
   0.0000000000000000        0.0000000000000000        0.0000000000000000     
   0.0000000000000000        0.0000000000000000        0.0000000000000000     
   0.0000000000000000        0.0000000000000000        0.0000000000000000     
   0.0000000000000000        0.0000000000000000        0.0000000000000000     
   0.0000000000000000        0.0000000000000000        0.0000000000000000     
   0.0000000000000000        0.0000000000000000        0.0000000000000000     
   0.0000000000000000        0.0000000000000000        0.0000000000000000     
   0.0000000000000000        0.0000000000000000        0.0000000000000000     
   0.0000000000000000        0.0000000000000000        0.0000000000000000     
   0.0000000000000000        0.0000000000000000        0.0000000000000000     
   0.0000000000000000        0.0000000000000000        0.0000000000000000     
   0.0000000000000000        0.0000000000000000        0.0000000000000000     
   0.0000000000000000        0.0000000000000000        0.0000000000000000     
   0.0000000000000000        0.0000000000000000        0.0000000000000000     
   0.0000000000000000        0.0000000000000000        0.0000000000000000     
   0.0000000000000000        0.0000000000000000        0.0000000000000000     
   0.0000000000000000        0.0000000000000000        0.0000000000000000     
   0.0000000000000000        0.0000000000000000        0.0000000000000000     
   0.0000000000000000        0.0000000000000000        0.0000000000000000     
   0.0000000000000000        0.0000000000000000        0.0000000000000000     
   0.0000000000000000        0.0000000000000000        0.0000000000000000     
   0.0000000000000000        0.0000000000000000        0.0000000000000000     
   0.0000000000000000        0.0000000000000000        0.0000000000000000     
   0.0000000000000000        0.0000000000000000        0.0000000000000000     
   0.0000000000000000        0.0000000000000000        0.0000000000000000     
   0.0000000000000000        0.0000000000000000        0.0000000000000000     
   0.0000000000000000        0.0000000000000000        0.0000000000000000     

CELL_DATA     8
TENSORS stress float
   2569.8233031379409        723.80000000000007        1.6143336667440167E-013
   723.80000000000007        102.15446670858896        0.0000000000000000     
   1.6143336667440167E-013   0.0000000000000000        102.15446670858896     

   0.0000000000000000        0.0000000000000000        0.0000000000000000     
   0.0000000000000000        0.0000000000000000        0.0000000000000000     
   0.0000000000000000        0.0000000000000000        0.0000000000000000     

   2312.8409728241472       -80.422222222222217        0.0000000000000000     
  -80.422222222222217        91.939020037730074        0.0000000000000000     
   0.0000000000000000        0.0000000000000000        91.939020037730074     

   0.0000000000000000        0.0000000000000000        0.0000000000000000     
   0.0000000000000000        0.0000000000000000        0.0000000000000000     
   0.0000000000000000        0.0000000000000000        0.0000000000000000     

   0.0000000000000000        0.0000000000000000        0.0000000000000000     
   0.0000000000000000        0.0000000000000000        0.0000000000000000     
   0.0000000000000000        0.0000000000000000        0.0000000000000000     

   0.0000000000000000        0.0000000000000000        0.0000000000000000     
   0.0000000000000000        0.0000000000000000        0.0000000000000000     
   0.0000000000000000        0.0000000000000000        0.0000000000000000     

   1692.2183827353911       -184.01694915253483        4.6571870914984223E-015
  -184.01694915253483        415.73340260985992        3.5852233315600857E-015
   4.6571870914984223E-015   3.5852233315600857E-015   217.10829889999567     

   0.0000000000000000        0.0000000000000000        0.0000000000000000     
   0.0000000000000000        0.0000000000000000        0.0000000000000000     
   0.0000000000000000        0.0000000000000000        0.0000000000000000     

TENSORS strain float
   1.5555555555555555E-002  0.14000000000000001        3.1225022567582528E-017
  0.14000000000000001        0.0000000000000000        0.0000000000000000     
   3.1225022567582528E-017   0.0000000000000000        0.0000000000000000     

   0.0000000000000000        0.0000000000000000        0.0000000000000000     
   0.0000000000000000        0.0000000000000000        0.0000000000000000     
   0.0000000000000000        0.0000000000000000        0.0000000000000000     

   1.4000000000000000E-002  -1.5555555555555555E-002   0.0000000000000000     
  -1.5555555555555555E-002   0.0000000000000000        0.0000000000000000     
   0.0000000000000000        0.0000000000000000        0.0000000000000000     

   0.0000000000000000        0.0000000000000000        0.0000000000000000     
   0.0000000000000000        0.0000000000000000        0.0000000000000000     
   0.0000000000000000        0.0000000000000000        0.0000000000000000     

   0.0000000000000000        0.0000000000000000        0.0000000000000000     
   0.0000000000000000        0.0000000000000000        0.0000000000000000     
   0.0000000000000000        0.0000000000000000        0.0000000000000000     

   0.0000000000000000        0.0000000000000000        0.0000000000000000     
   0.0000000000000000        0.0000000000000000        0.0000000000000000     
   0.0000000000000000        0.0000000000000000        0.0000000000000000     

   1.0677966101693075E-002  -3.5593220338981595E-002   9.0080988230143562E-019
  -3.5593220338981595E-002   2.4915254237289991E-002   9.0080988230152903E-019
   9.0080988230143562E-019   9.0080988230152903E-019   0.0000000000000000     

   0.0000000000000000        0.0000000000000000        0.0000000000000000     
   0.0000000000000000        0.0000000000000000        0.0000000000000000     
   0.0000000000000000        0.0000000000000000        0.0000000000000000     

SCALARS fstat float
LOOKUP_TABLE default
   5.0000000000000000     
   0.0000000000000000     
   5.0000000000000000     
   0.0000000000000000     
   0.0000000000000000     
   0.0000000000000000     
   7.5000000000000000     
   0.0000000000000000     
SCALARS dm float
LOOKUP_TABLE default
   0.0000000000000000     
   0.0000000000000000     
   0.0000000000000000     
   0.0000000000000000     
   0.0000000000000000     
   0.0000000000000000     
   6.1231276229067176E-002
   0.0000000000000000     
SCALARS u0 float
LOOKUP_TABLE default
   0.0000000000000000     
   0.0000000000000000     
   0.0000000000000000     
   0.0000000000000000     
   0.0000000000000000     
   0.0000000000000000     
   2.8962618942343209E-003
   0.0000000000000000     
SCALARS uf float
LOOKUP_TABLE default
   0.0000000000000000     
   0.0000000000000000     
   0.0000000000000000     
   0.0000000000000000     
   0.0000000000000000     
   0.0000000000000000     
   1.6619929566326425E-002
   0.0000000000000000     
