# vtk DataFile Version 3.1
for Floating Node Method output
ASCII
DATASET UNSTRUCTURED_GRID
POINTS    12 FLOAT
   0.0000000000000000        0.0000000000000000        0.0000000000000000     
   1.0000000000000000        0.0000000000000000        0.0000000000000000     
   0.0000000000000000        1.0000000000000000        0.0000000000000000     
   1.0000000000000000        1.0000000000000000        0.0000000000000000     
   0.0000000000000000        2.0000000000000000        0.0000000000000000     
   1.0000000000000000        2.0000000000000000        0.0000000000000000     
   0.0000000000000000        0.0000000000000000        1.0000000000000000     
   1.0000000000000000        0.0000000000000000        1.0000000000000000     
   0.0000000000000000        1.0000000000000000        1.0000000000000000     
   1.0000000000000000        1.0000000000000000        1.0000000000000000     
   0.0000000000000000        2.0000000000000000        1.0000000000000000     
   1.0000000000000000        2.0000000000000000        1.0000000000000000     

CELLS     3   23
  6  0  1  2  6  7  8
  6  1  3  2  7  9  8
  8  2  3  5  4  8  9 11 10

CELL_TYPES     3
13
13
12

POINT_DATA    12
VECTORS displacement float
   0.0000000000000000        0.0000000000000000        0.0000000000000000     
   0.0000000000000000        0.0000000000000000        0.0000000000000000     
   0.0000000000000000        0.0000000000000000        0.0000000000000000     
   0.0000000000000000        0.0000000000000000        0.0000000000000000     
   0.0000000000000000        0.0000000000000000        0.0000000000000000     
   0.0000000000000000        0.0000000000000000        0.0000000000000000     
   0.0000000000000000       -4.2426406871192847E-002   4.2426406871192847E-002
   0.0000000000000000       -4.2426406871192847E-002   4.2426406871192847E-002
   0.0000000000000000       -4.2426406871192847E-002   4.2426406871192847E-002
   0.0000000000000000       -4.2426406871192847E-002   4.2426406871192847E-002
   0.0000000000000000       -4.2426406871192847E-002   4.2426406871192847E-002
   0.0000000000000000       -4.2426406871192847E-002   4.2426406871192847E-002

CELL_DATA     3
TENSORS stress float
   0.0000000000000000        0.0000000000000000        0.0000000000000000     
   0.0000000000000000        0.0000000000000000       -2.1213203435596428     
   0.0000000000000000       -2.1213203435596428        4.2426406871192857     

   0.0000000000000000        0.0000000000000000        0.0000000000000000     
   0.0000000000000000        0.0000000000000000       -2.1213203435596428     
   0.0000000000000000       -2.1213203435596428        4.2426406871192857     

   0.0000000000000000        0.0000000000000000        0.0000000000000000     
   0.0000000000000000        3.7947076036992655E-017  -2.1213203435596424     
   0.0000000000000000       -2.1213203435596424        4.2426406871192848     

TENSORS strain float
   0.0000000000000000        0.0000000000000000        0.0000000000000000     
   0.0000000000000000        0.0000000000000000       -4.2426406871192854E-002
   0.0000000000000000       -4.2426406871192854E-002   4.2426406871192854E-002

   0.0000000000000000        0.0000000000000000        0.0000000000000000     
   0.0000000000000000        0.0000000000000000       -4.2426406871192854E-002
   0.0000000000000000       -4.2426406871192854E-002   4.2426406871192854E-002

   0.0000000000000000        0.0000000000000000        0.0000000000000000     
   0.0000000000000000        3.7947076036992655E-019  -4.2426406871192861E-002
   0.0000000000000000       -4.2426406871192861E-002   4.2426406871192861E-002

SCALARS fstat float
LOOKUP_TABLE default
   0.0000000000000000     
   0.0000000000000000     
   0.0000000000000000     
SCALARS dm float
LOOKUP_TABLE default
   0.0000000000000000     
   0.0000000000000000     
   0.0000000000000000     
SCALARS u0 float
LOOKUP_TABLE default
   0.0000000000000000     
   0.0000000000000000     
   0.0000000000000000     
SCALARS uf float
LOOKUP_TABLE default
   0.0000000000000000     
   0.0000000000000000     
   0.0000000000000000     
