# vtk DataFile Version 3.1
for Floating Node Method output
ASCII
DATASET UNSTRUCTURED_GRID
POINTS    40 FLOAT
   0.0000000000000000        0.0000000000000000        0.0000000000000000     
  0.50000000000000000        0.0000000000000000        0.0000000000000000     
   0.0000000000000000       0.50000000000000000        0.0000000000000000     
  0.50000000000000000       0.50000000000000000        0.0000000000000000     
   0.0000000000000000        1.0000000000000000        0.0000000000000000     
  0.50000000000000000        1.0000000000000000        0.0000000000000000     
   0.0000000000000000        0.0000000000000000       0.25000000000000000     
  0.50000000000000000        0.0000000000000000       0.25000000000000000     
   0.0000000000000000       0.50000000000000000       0.25000000000000000     
  0.50000000000000000       0.50000000000000000       0.25000000000000000     
   0.0000000000000000        1.0000000000000000       0.25000000000000000     
  0.50000000000000000        1.0000000000000000       0.25000000000000000     
   5.0000000000000003E-002   0.0000000000000000        0.0000000000000000     
   5.0000000000000003E-002   0.0000000000000000        0.0000000000000000     
   0.0000000000000000        0.0000000000000000        0.0000000000000000     
   0.0000000000000000        0.0000000000000000        0.0000000000000000     
  0.45000000000000001       0.50000000000000000        0.0000000000000000     
  0.45000000000000001       0.50000000000000000        0.0000000000000000     
   0.0000000000000000        0.0000000000000000        0.0000000000000000     
   0.0000000000000000        0.0000000000000000        0.0000000000000000     
   5.0000000000000003E-002   0.0000000000000000       0.25000000000000000     
   5.0000000000000003E-002   0.0000000000000000       0.25000000000000000     
   0.0000000000000000        0.0000000000000000        0.0000000000000000     
   0.0000000000000000        0.0000000000000000        0.0000000000000000     
  0.45000000000000001       0.50000000000000000       0.25000000000000000     
  0.45000000000000001       0.50000000000000000       0.25000000000000000     
   0.0000000000000000        0.0000000000000000        0.0000000000000000     
   0.0000000000000000        0.0000000000000000        0.0000000000000000     
  0.50000000000000000       0.55000000000000515        0.0000000000000000     
  0.50000000000000000       0.55000000000000515        0.0000000000000000     
   0.0000000000000000        0.0000000000000000        0.0000000000000000     
   0.0000000000000000        0.0000000000000000        0.0000000000000000     
   0.0000000000000000        0.0000000000000000        0.0000000000000000     
   0.0000000000000000        0.0000000000000000        0.0000000000000000     
  0.50000000000000000       0.55000000000000515       0.25000000000000000     
  0.50000000000000000       0.55000000000000515       0.25000000000000000     
   0.0000000000000000        0.0000000000000000        0.0000000000000000     
   0.0000000000000000        0.0000000000000000        0.0000000000000000     
   0.0000000000000000        0.0000000000000000        0.0000000000000000     
   0.0000000000000000        0.0000000000000000        0.0000000000000000     

CELLS     8   64
  8  0 12 17  2  6 20 25  8
  8 13  1  3 16 21  7  9 24
  8 17 12 20 25 16 13 21 24
  6 16  3 28 24  9 34
  6 29  5  4 35 11 10
  6  4  2 17 10  8 25
  6 17 29  4 25 35 10
  8 16 28 34 24 17 29 35 25

CELL_TYPES     8
12
12
12
13
13
13
13
12

POINT_DATA    40
VECTORS displacement float
   0.0000000000000000        0.0000000000000000        0.0000000000000000     
   1.0000000000000000E-002   0.0000000000000000        0.0000000000000000     
   0.0000000000000000        0.0000000000000000        0.0000000000000000     
   1.0000000000000000E-002   0.0000000000000000        0.0000000000000000     
   0.0000000000000000        0.0000000000000000        0.0000000000000000     
   1.0000000000000000E-002   0.0000000000000000        0.0000000000000000     
   0.0000000000000000        0.0000000000000000        0.0000000000000000     
   1.0000000000000000E-002   0.0000000000000000        0.0000000000000000     
   0.0000000000000000        0.0000000000000000        0.0000000000000000     
   1.0000000000000000E-002   0.0000000000000000        0.0000000000000000     
   0.0000000000000000        0.0000000000000000        0.0000000000000000     
   1.0000000000000000E-002   0.0000000000000000        0.0000000000000000     
   0.0000000000000000        0.0000000000000000        0.0000000000000000     
   0.0000000000000000        0.0000000000000000        0.0000000000000000     
   0.0000000000000000        0.0000000000000000        0.0000000000000000     
   0.0000000000000000        0.0000000000000000        0.0000000000000000     
   0.0000000000000000        0.0000000000000000        0.0000000000000000     
   0.0000000000000000        0.0000000000000000        0.0000000000000000     
   0.0000000000000000        0.0000000000000000        0.0000000000000000     
   0.0000000000000000        0.0000000000000000        0.0000000000000000     
   0.0000000000000000        0.0000000000000000        0.0000000000000000     
   0.0000000000000000        0.0000000000000000        0.0000000000000000     
   0.0000000000000000        0.0000000000000000        0.0000000000000000     
   0.0000000000000000        0.0000000000000000        0.0000000000000000     
   0.0000000000000000        0.0000000000000000        0.0000000000000000     
   0.0000000000000000        0.0000000000000000        0.0000000000000000     
   0.0000000000000000        0.0000000000000000        0.0000000000000000     
   0.0000000000000000        0.0000000000000000        0.0000000000000000     
   0.0000000000000000        0.0000000000000000        0.0000000000000000     
   0.0000000000000000        0.0000000000000000        0.0000000000000000     
   0.0000000000000000        0.0000000000000000        0.0000000000000000     
   0.0000000000000000        0.0000000000000000        0.0000000000000000     
   0.0000000000000000        0.0000000000000000        0.0000000000000000     
   0.0000000000000000        0.0000000000000000        0.0000000000000000     
   0.0000000000000000        0.0000000000000000        0.0000000000000000     
   0.0000000000000000        0.0000000000000000        0.0000000000000000     
   0.0000000000000000        0.0000000000000000        0.0000000000000000     
   0.0000000000000000        0.0000000000000000        0.0000000000000000     
   0.0000000000000000        0.0000000000000000        0.0000000000000000     
   0.0000000000000000        0.0000000000000000        0.0000000000000000     

CELL_DATA     8
TENSORS stress float
   0.0000000000000000        0.0000000000000000        0.0000000000000000     
   0.0000000000000000        0.0000000000000000        0.0000000000000000     
   0.0000000000000000        0.0000000000000000        0.0000000000000000     

   2024.9309126971643       -262.88135593219260       -2.1799599151694750E-015
  -262.88135593219260        578.30142555070313       -1.6781896445600399E-015
  -2.1799599151694750E-015  -1.6781896445600399E-015   294.55127739375428     

   0.0000000000000000        0.0000000000000000        0.0000000000000000     
   0.0000000000000000        0.0000000000000000        0.0000000000000000     
   0.0000000000000000        0.0000000000000000        0.0000000000000000     

   1313.4145719675630       -1033.9999999998934        3.2342678014150742E-013
  -1033.9999999998934        2849.4130659021303        2.4898231817472591E-013
   3.2342678014150742E-013   2.4898231817472591E-013   1255.0074714965351     

   3480.3205923507348       -103.40000000001190       -4.1221060214113698E-014
  -103.40000000001190        122.80813223046111       -3.1733040551680751E-014
  -4.1221060214113698E-014  -3.1733040551680751E-014   131.66594108826274     

   0.0000000000000000        0.0000000000000000        0.0000000000000000     
   0.0000000000000000        0.0000000000000000        0.0000000000000000     
   0.0000000000000000        0.0000000000000000        0.0000000000000000     

   0.0000000000000000        0.0000000000000000        0.0000000000000000     
   0.0000000000000000        0.0000000000000000        0.0000000000000000     
   0.0000000000000000        0.0000000000000000        0.0000000000000000     

   0.0000000000000000        0.0000000000000000        0.0000000000000000     
   0.0000000000000000        0.0000000000000000        0.0000000000000000     
   0.0000000000000000        0.0000000000000000        0.0000000000000000     

TENSORS strain float
   0.0000000000000000        0.0000000000000000        0.0000000000000000     
   0.0000000000000000        0.0000000000000000        0.0000000000000000     
   0.0000000000000000        0.0000000000000000        0.0000000000000000     

   1.5254237288132964E-002  -5.0847457627116566E-002  -4.2165568958790610E-019
  -5.0847457627116566E-002   3.5593220338985695E-002  -4.2165568958794972E-019
  -4.2165568958790610E-019  -4.2165568958794972E-019   0.0000000000000000     

   0.0000000000000000        0.0000000000000000        0.0000000000000000     
   0.0000000000000000        0.0000000000000000        0.0000000000000000     
   0.0000000000000000        0.0000000000000000        0.0000000000000000     

  -6.2450045135165055E-017 -0.19999999999997939        6.2558371400678421E-017
 -0.19999999999997939       0.20000000000000012        6.2558371400684904E-017
   6.2558371400678421E-017   6.2558371400684904E-017   0.0000000000000000     

   2.1111111111110206E-002  -2.0000000000002301E-002  -7.9731257667531320E-018
  -2.0000000000002301E-002  -1.1111111111102041E-003  -7.9731257667539578E-018
  -7.9731257667531320E-018  -7.9731257667539578E-018   0.0000000000000000     

   0.0000000000000000        0.0000000000000000        0.0000000000000000     
   0.0000000000000000        0.0000000000000000        0.0000000000000000     
   0.0000000000000000        0.0000000000000000        0.0000000000000000     

   0.0000000000000000        0.0000000000000000        0.0000000000000000     
   0.0000000000000000        0.0000000000000000        0.0000000000000000     
   0.0000000000000000        0.0000000000000000        0.0000000000000000     

   0.0000000000000000        0.0000000000000000        0.0000000000000000     
   0.0000000000000000        0.0000000000000000        0.0000000000000000     
   0.0000000000000000        0.0000000000000000        0.0000000000000000     

SCALARS fstat float
LOOKUP_TABLE default
   0.0000000000000000     
   7.5000000000000000     
   0.0000000000000000     
   5.0000000000000000     
   15.000000000000000     
   0.0000000000000000     
   0.0000000000000000     
   0.0000000000000000     
SCALARS dm float
LOOKUP_TABLE default
   0.0000000000000000     
  0.13368999757109701     
   0.0000000000000000     
   0.0000000000000000     
   0.0000000000000000     
   0.0000000000000000     
   0.0000000000000000     
   0.0000000000000000     
SCALARS u0 float
LOOKUP_TABLE default
   0.0000000000000000     
   2.8962618942343209E-003
   0.0000000000000000     
   0.0000000000000000     
  -6.3512139499520852E-004
   0.0000000000000000     
   0.0000000000000000     
   0.0000000000000000     
SCALARS uf float
LOOKUP_TABLE default
   0.0000000000000000     
   1.6619929566326425E-002
   0.0000000000000000     
   0.0000000000000000     
   6.7533630868900241E-002
   0.0000000000000000     
   0.0000000000000000     
   0.0000000000000000     
