# vtk DataFile Version 3.1
for Floating Node Method output
ASCII
DATASET UNSTRUCTURED_GRID
POINTS   128 FLOAT
  -1.0000000000000000       -1.0000000000000000        0.0000000000000000     
 -0.33333334300000000       -1.0000000000000000        0.0000000000000000     
  0.33333334300000000       -1.0000000000000000        0.0000000000000000     
   1.0000000000000000       -1.0000000000000000        0.0000000000000000     
  -1.0000000000000000      -0.33333334300000000        0.0000000000000000     
 -0.32342386200000001      -0.52149897800000000        0.0000000000000000     
  0.29858025900000001      -0.36708718499999998        0.0000000000000000     
   1.0000000000000000      -0.33333334300000000        0.0000000000000000     
  -1.0000000000000000       0.33333334300000000        0.0000000000000000     
 -0.43816247600000002       0.43276578199999999        0.0000000000000000     
  0.45861047500000002       0.21885176000000001        0.0000000000000000     
   1.0000000000000000       0.33333334300000000        0.0000000000000000     
  -1.0000000000000000        1.0000000000000000        0.0000000000000000     
 -0.33333334300000000        1.0000000000000000        0.0000000000000000     
  0.33333334300000000        1.0000000000000000        0.0000000000000000     
   1.0000000000000000        1.0000000000000000        0.0000000000000000     
  -1.0000000000000000       -1.0000000000000000       0.25000000000000000     
 -0.33333334300000000       -1.0000000000000000       0.25000000000000000     
  0.33333334300000000       -1.0000000000000000       0.25000000000000000     
   1.0000000000000000       -1.0000000000000000       0.25000000000000000     
  -1.0000000000000000      -0.33333334300000000       0.25000000000000000     
 -0.32342386200000001      -0.52149897800000000       0.25000000000000000     
  0.29858025900000001      -0.36708718499999998       0.25000000000000000     
   1.0000000000000000      -0.33333334300000000       0.25000000000000000     
  -1.0000000000000000       0.33333334300000000       0.25000000000000000     
 -0.43816247600000002       0.43276578199999999       0.25000000000000000     
  0.45861047500000002       0.21885176000000001       0.25000000000000000     
   1.0000000000000000       0.33333334300000000       0.25000000000000000     
  -1.0000000000000000        1.0000000000000000       0.25000000000000000     
 -0.33333334300000000        1.0000000000000000       0.25000000000000000     
  0.33333334300000000        1.0000000000000000       0.25000000000000000     
   1.0000000000000000        1.0000000000000000       0.25000000000000000     
   0.0000000000000000        0.0000000000000000        0.0000000000000000     
   0.0000000000000000        0.0000000000000000        0.0000000000000000     
   0.0000000000000000        0.0000000000000000        0.0000000000000000     
   0.0000000000000000        0.0000000000000000        0.0000000000000000     
   0.0000000000000000        0.0000000000000000        0.0000000000000000     
   0.0000000000000000        0.0000000000000000        0.0000000000000000     
   0.0000000000000000        0.0000000000000000        0.0000000000000000     
   0.0000000000000000        0.0000000000000000        0.0000000000000000     
   0.0000000000000000        0.0000000000000000        0.0000000000000000     
   0.0000000000000000        0.0000000000000000        0.0000000000000000     
   0.0000000000000000        0.0000000000000000        0.0000000000000000     
   0.0000000000000000        0.0000000000000000        0.0000000000000000     
   0.0000000000000000        0.0000000000000000        0.0000000000000000     
   0.0000000000000000        0.0000000000000000        0.0000000000000000     
   0.0000000000000000        0.0000000000000000        0.0000000000000000     
   0.0000000000000000        0.0000000000000000        0.0000000000000000     
   0.0000000000000000        0.0000000000000000        0.0000000000000000     
   0.0000000000000000        0.0000000000000000        0.0000000000000000     
   0.0000000000000000        0.0000000000000000        0.0000000000000000     
   0.0000000000000000        0.0000000000000000        0.0000000000000000     
   0.0000000000000000        0.0000000000000000        0.0000000000000000     
   0.0000000000000000        0.0000000000000000        0.0000000000000000     
   0.0000000000000000        0.0000000000000000        0.0000000000000000     
   0.0000000000000000        0.0000000000000000        0.0000000000000000     
   0.0000000000000000        0.0000000000000000        0.0000000000000000     
   0.0000000000000000        0.0000000000000000        0.0000000000000000     
   0.0000000000000000        0.0000000000000000        0.0000000000000000     
   0.0000000000000000        0.0000000000000000        0.0000000000000000     
   0.0000000000000000        0.0000000000000000        0.0000000000000000     
   0.0000000000000000        0.0000000000000000        0.0000000000000000     
   0.0000000000000000        0.0000000000000000        0.0000000000000000     
   0.0000000000000000        0.0000000000000000        0.0000000000000000     
   0.0000000000000000        0.0000000000000000        0.0000000000000000     
   0.0000000000000000        0.0000000000000000        0.0000000000000000     
   0.0000000000000000        0.0000000000000000        0.0000000000000000     
   0.0000000000000000        0.0000000000000000        0.0000000000000000     
   0.0000000000000000        0.0000000000000000        0.0000000000000000     
   0.0000000000000000        0.0000000000000000        0.0000000000000000     
   0.0000000000000000        0.0000000000000000        0.0000000000000000     
   0.0000000000000000        0.0000000000000000        0.0000000000000000     
   0.0000000000000000        0.0000000000000000        0.0000000000000000     
   0.0000000000000000        0.0000000000000000        0.0000000000000000     
   0.0000000000000000        0.0000000000000000        0.0000000000000000     
   0.0000000000000000        0.0000000000000000        0.0000000000000000     
   0.0000000000000000        0.0000000000000000        0.0000000000000000     
   0.0000000000000000        0.0000000000000000        0.0000000000000000     
   0.0000000000000000        0.0000000000000000        0.0000000000000000     
   0.0000000000000000        0.0000000000000000        0.0000000000000000     
   0.0000000000000000        0.0000000000000000        0.0000000000000000     
   0.0000000000000000        0.0000000000000000        0.0000000000000000     
   0.0000000000000000        0.0000000000000000        0.0000000000000000     
   0.0000000000000000        0.0000000000000000        0.0000000000000000     
   0.0000000000000000        0.0000000000000000        0.0000000000000000     
   0.0000000000000000        0.0000000000000000        0.0000000000000000     
   0.0000000000000000        0.0000000000000000        0.0000000000000000     
   0.0000000000000000        0.0000000000000000        0.0000000000000000     
   0.0000000000000000        0.0000000000000000        0.0000000000000000     
   0.0000000000000000        0.0000000000000000        0.0000000000000000     
   0.0000000000000000        0.0000000000000000        0.0000000000000000     
   0.0000000000000000        0.0000000000000000        0.0000000000000000     
   0.0000000000000000        0.0000000000000000        0.0000000000000000     
   0.0000000000000000        0.0000000000000000        0.0000000000000000     
   0.0000000000000000        0.0000000000000000        0.0000000000000000     
   0.0000000000000000        0.0000000000000000        0.0000000000000000     
   0.0000000000000000        0.0000000000000000        0.0000000000000000     
   0.0000000000000000        0.0000000000000000        0.0000000000000000     
   0.0000000000000000        0.0000000000000000        0.0000000000000000     
   0.0000000000000000        0.0000000000000000        0.0000000000000000     
   0.0000000000000000        0.0000000000000000        0.0000000000000000     
   0.0000000000000000        0.0000000000000000        0.0000000000000000     
   0.0000000000000000        0.0000000000000000        0.0000000000000000     
   0.0000000000000000        0.0000000000000000        0.0000000000000000     
   0.0000000000000000        0.0000000000000000        0.0000000000000000     
   0.0000000000000000        0.0000000000000000        0.0000000000000000     
   0.0000000000000000        0.0000000000000000        0.0000000000000000     
   0.0000000000000000        0.0000000000000000        0.0000000000000000     
   0.0000000000000000        0.0000000000000000        0.0000000000000000     
   0.0000000000000000        0.0000000000000000        0.0000000000000000     
   0.0000000000000000        0.0000000000000000        0.0000000000000000     
   0.0000000000000000        0.0000000000000000        0.0000000000000000     
   0.0000000000000000        0.0000000000000000        0.0000000000000000     
   0.0000000000000000        0.0000000000000000        0.0000000000000000     
   0.0000000000000000        0.0000000000000000        0.0000000000000000     
   0.0000000000000000        0.0000000000000000        0.0000000000000000     
   0.0000000000000000        0.0000000000000000        0.0000000000000000     
   0.0000000000000000        0.0000000000000000        0.0000000000000000     
   0.0000000000000000        0.0000000000000000        0.0000000000000000     
   0.0000000000000000        0.0000000000000000        0.0000000000000000     
   0.0000000000000000        0.0000000000000000        0.0000000000000000     
   0.0000000000000000        0.0000000000000000        0.0000000000000000     
   0.0000000000000000        0.0000000000000000        0.0000000000000000     
   0.0000000000000000        0.0000000000000000        0.0000000000000000     
   0.0000000000000000        0.0000000000000000        0.0000000000000000     
   0.0000000000000000        0.0000000000000000        0.0000000000000000     
   0.0000000000000000        0.0000000000000000        0.0000000000000000     
   0.0000000000000000        0.0000000000000000        0.0000000000000000     

CELLS     9   81
         8         0         1         5         4        16        17        21        20
         8         1         2         6         5        17        18        22        21
         8         2         3         7         6        18        19        23        22
         8         4         5         9         8        20        21        25        24
         8         5         6        10         9        21        22        26        25
         8         6         7        11        10        22        23        27        26
         8         8         9        13        12        24        25        29        28
         8         9        10        14        13        25        26        30        29
         8        10        11        15        14        26        27        31        30

CELL_TYPES     9
12
12
12
12
12
12
12
12
12

POINT_DATA   128
VECTORS displacement float
  2.22275820543234419E-041 -2.47419488642717250E-042  2.10723203565383288E-005
  3.60093252570105385E-006 -2.19380060210246543E-038  2.71300492559088061E-005
  9.55061914285651957E-006 -1.41865972299987924E-038  3.03825525721374961E-005
  7.19870349943440396E-041  9.10942895999439127E-043  2.76430603040112449E-005
  9.33786547283551894E-038  7.63133079429858483E-006 -4.88697386729615318E-005
 -5.80643938583922843E-006 -5.75630615304744252E-005 -7.33745871727856189E-005
 -1.99061329722225228E-005  1.36003930608525650E-005 -6.95723532562880629E-005
 -8.88241249303671708E-039 -5.55046071972918522E-006 -6.09795665909498508E-005
  1.22545220687485764E-037  4.36978980714029222E-004  1.72579081028211337E-004
  5.13765975543330455E-006  3.57764813967085247E-004  1.82771306410305388E-004
  3.93607704052570002E-005  2.21450533418774770E-004  1.69093769259308639E-004
 -3.25804308838789364E-037  2.52428313507478512E-004  1.93604722610804606E-004
   0.0000000000000000       1.00000000000000002E-003   0.0000000000000000     
 -4.35118768986100712E-005  1.00000000000000002E-003   0.0000000000000000     
 -9.33762585961370932E-005  1.00000000000000002E-003   0.0000000000000000     
  2.29886539612822703E-041  1.00000000000000002E-003   0.0000000000000000     
   0.0000000000000000        0.0000000000000000        0.0000000000000000     
   0.0000000000000000        0.0000000000000000        0.0000000000000000     
   0.0000000000000000        0.0000000000000000        0.0000000000000000     
   0.0000000000000000        0.0000000000000000        0.0000000000000000     
   0.0000000000000000        0.0000000000000000        0.0000000000000000     
   0.0000000000000000        0.0000000000000000        0.0000000000000000     
   0.0000000000000000        0.0000000000000000        0.0000000000000000     
   0.0000000000000000        0.0000000000000000        0.0000000000000000     
   0.0000000000000000        0.0000000000000000        0.0000000000000000     
   0.0000000000000000        0.0000000000000000        0.0000000000000000     
   0.0000000000000000        0.0000000000000000        0.0000000000000000     
   0.0000000000000000        0.0000000000000000        0.0000000000000000     
   0.0000000000000000       1.00000000000000002E-003   0.0000000000000000     
   0.0000000000000000       1.00000000000000002E-003   0.0000000000000000     
   0.0000000000000000       1.00000000000000002E-003   0.0000000000000000     
   0.0000000000000000       1.00000000000000002E-003   0.0000000000000000     
   0.0000000000000000        0.0000000000000000        0.0000000000000000     
   0.0000000000000000        0.0000000000000000        0.0000000000000000     
   0.0000000000000000        0.0000000000000000        0.0000000000000000     
   0.0000000000000000        0.0000000000000000        0.0000000000000000     
   0.0000000000000000        0.0000000000000000        0.0000000000000000     
   0.0000000000000000        0.0000000000000000        0.0000000000000000     
   0.0000000000000000        0.0000000000000000        0.0000000000000000     
   0.0000000000000000        0.0000000000000000        0.0000000000000000     
   0.0000000000000000        0.0000000000000000        0.0000000000000000     
   0.0000000000000000        0.0000000000000000        0.0000000000000000     
   0.0000000000000000        0.0000000000000000        0.0000000000000000     
   0.0000000000000000        0.0000000000000000        0.0000000000000000     
   0.0000000000000000        0.0000000000000000        0.0000000000000000     
   0.0000000000000000        0.0000000000000000        0.0000000000000000     
   0.0000000000000000        0.0000000000000000        0.0000000000000000     
   0.0000000000000000        0.0000000000000000        0.0000000000000000     
   0.0000000000000000        0.0000000000000000        0.0000000000000000     
   0.0000000000000000        0.0000000000000000        0.0000000000000000     
   0.0000000000000000        0.0000000000000000        0.0000000000000000     
   0.0000000000000000        0.0000000000000000        0.0000000000000000     
   0.0000000000000000        0.0000000000000000        0.0000000000000000     
   0.0000000000000000        0.0000000000000000        0.0000000000000000     
   0.0000000000000000        0.0000000000000000        0.0000000000000000     
   0.0000000000000000        0.0000000000000000        0.0000000000000000     
   0.0000000000000000        0.0000000000000000        0.0000000000000000     
   0.0000000000000000        0.0000000000000000        0.0000000000000000     
   0.0000000000000000        0.0000000000000000        0.0000000000000000     
   0.0000000000000000        0.0000000000000000        0.0000000000000000     
   0.0000000000000000        0.0000000000000000        0.0000000000000000     
   0.0000000000000000        0.0000000000000000        0.0000000000000000     
   0.0000000000000000        0.0000000000000000        0.0000000000000000     
   0.0000000000000000        0.0000000000000000        0.0000000000000000     
   0.0000000000000000        0.0000000000000000        0.0000000000000000     
   0.0000000000000000        0.0000000000000000        0.0000000000000000     
   0.0000000000000000        0.0000000000000000        0.0000000000000000     
   0.0000000000000000        0.0000000000000000        0.0000000000000000     
   0.0000000000000000        0.0000000000000000        0.0000000000000000     
   0.0000000000000000        0.0000000000000000        0.0000000000000000     
   0.0000000000000000        0.0000000000000000        0.0000000000000000     
   0.0000000000000000        0.0000000000000000        0.0000000000000000     
   0.0000000000000000        0.0000000000000000        0.0000000000000000     
   0.0000000000000000        0.0000000000000000        0.0000000000000000     
   0.0000000000000000        0.0000000000000000        0.0000000000000000     
   0.0000000000000000        0.0000000000000000        0.0000000000000000     
   0.0000000000000000        0.0000000000000000        0.0000000000000000     
   0.0000000000000000        0.0000000000000000        0.0000000000000000     
   0.0000000000000000        0.0000000000000000        0.0000000000000000     
   0.0000000000000000        0.0000000000000000        0.0000000000000000     
   0.0000000000000000        0.0000000000000000        0.0000000000000000     
   0.0000000000000000        0.0000000000000000        0.0000000000000000     
   0.0000000000000000        0.0000000000000000        0.0000000000000000     
   0.0000000000000000        0.0000000000000000        0.0000000000000000     
   0.0000000000000000        0.0000000000000000        0.0000000000000000     
   0.0000000000000000        0.0000000000000000        0.0000000000000000     
   0.0000000000000000        0.0000000000000000        0.0000000000000000     
   0.0000000000000000        0.0000000000000000        0.0000000000000000     
   0.0000000000000000        0.0000000000000000        0.0000000000000000     
   0.0000000000000000        0.0000000000000000        0.0000000000000000     
   0.0000000000000000        0.0000000000000000        0.0000000000000000     
   0.0000000000000000        0.0000000000000000        0.0000000000000000     
   0.0000000000000000        0.0000000000000000        0.0000000000000000     
   0.0000000000000000        0.0000000000000000        0.0000000000000000     
   0.0000000000000000        0.0000000000000000        0.0000000000000000     
   0.0000000000000000        0.0000000000000000        0.0000000000000000     
   0.0000000000000000        0.0000000000000000        0.0000000000000000     
   0.0000000000000000        0.0000000000000000        0.0000000000000000     
   0.0000000000000000        0.0000000000000000        0.0000000000000000     
   0.0000000000000000        0.0000000000000000        0.0000000000000000     
   0.0000000000000000        0.0000000000000000        0.0000000000000000     
   0.0000000000000000        0.0000000000000000        0.0000000000000000     
   0.0000000000000000        0.0000000000000000        0.0000000000000000     
   0.0000000000000000        0.0000000000000000        0.0000000000000000     
   0.0000000000000000        0.0000000000000000        0.0000000000000000     
   0.0000000000000000        0.0000000000000000        0.0000000000000000     
   0.0000000000000000        0.0000000000000000        0.0000000000000000     
   0.0000000000000000        0.0000000000000000        0.0000000000000000     
   0.0000000000000000        0.0000000000000000        0.0000000000000000     
   0.0000000000000000        0.0000000000000000        0.0000000000000000     
   0.0000000000000000        0.0000000000000000        0.0000000000000000     
   0.0000000000000000        0.0000000000000000        0.0000000000000000     
   0.0000000000000000        0.0000000000000000        0.0000000000000000     
   0.0000000000000000        0.0000000000000000        0.0000000000000000     
   0.0000000000000000        0.0000000000000000        0.0000000000000000     
   0.0000000000000000        0.0000000000000000        0.0000000000000000     
   0.0000000000000000        0.0000000000000000        0.0000000000000000     
   0.0000000000000000        0.0000000000000000        0.0000000000000000     
   0.0000000000000000        0.0000000000000000        0.0000000000000000     
   0.0000000000000000        0.0000000000000000        0.0000000000000000     
   0.0000000000000000        0.0000000000000000        0.0000000000000000     
   0.0000000000000000        0.0000000000000000        0.0000000000000000     
   0.0000000000000000        0.0000000000000000        0.0000000000000000     
   0.0000000000000000        0.0000000000000000        0.0000000000000000     
   0.0000000000000000        0.0000000000000000        0.0000000000000000     
   0.0000000000000000        0.0000000000000000        0.0000000000000000     
   0.0000000000000000        0.0000000000000000        0.0000000000000000     
   0.0000000000000000        0.0000000000000000        0.0000000000000000     

CELL_DATA     9
TENSORS stress float
  0.11995688736999766      -0.16445211623179909      -7.85651890353557397E-002
 -0.16445211623179909       0.12441958027959074      -0.10240231671454322     
 -7.85651890353557397E-002 -0.10240231671454322       0.90046662676273936     

  0.25931986148798236       6.85107917633969027E-002  0.13580726746359248     
  6.85107917633969027E-002  0.23349260792866477      -0.18527971263513862     
  0.13580726746359248      -0.18527971263513862        1.0805962863251835     

   1.1864670677569333      -9.48012339640249002E-002  7.35839067532012558E-002
 -9.48012339640249002E-002  0.52783388000646669      -0.32059427942255969     
  7.35839067532012558E-002 -0.32059427942255969        1.0823321098273953     

  0.20266223096587554      -0.19765301862940934       2.58938437276387268E-002
 -0.19765301862940934        2.2531135611572046       -2.3732518186938458     
  2.58938437276387268E-002  -2.3732518186938458       -1.6836912720573438     

  0.97999947239293683       6.09000488627676126E-002 -9.21659468013824590E-002
  6.09000488627676126E-002   1.6006896624711406       -1.4806447193128500     
 -9.21659468013824590E-002  -1.4806447193128500       -1.6697771561032031     

  -2.3287284916016273       4.41940627482530143E-002 -0.15600953965058878     
  4.41940627482530143E-002   1.1350575152132487       -1.1281548216470170     
 -0.15600953965058878       -1.1281548216470170       -2.2144592431429824     

   4.4941676279500671      -0.84049531544886269       0.28368847059675872     
 -0.84049531544886269        16.450660773119001       -3.7437893176583321     
  0.28368847059675872       -3.7437893176583321        3.1309847077286284     

   3.9739429817040057       0.30550622254243687       0.36667446348073307     
  0.30550622254243687        15.902968292122788       -2.8299423958364902     
  0.36667446348073307       -2.8299423958364902        2.9226853290480470     

   10.060888659491134      -0.76554360226038454       0.39637968418529079     
 -0.76554360226038454        15.185491863011361       -2.3790960301224793     
  0.39637968418529079       -2.3790960301224793        2.6372099015034660     

TENSORS strain float
 -1.41928213058630169E-006 -3.18089199674659738E-005 -1.51963615155426925E-005
 -3.18089199674659738E-005 -2.33042960887089632E-005 -2.57292253051616163E-005
 -1.51963615155426925E-005 -2.57292253051616163E-005  7.40419562333000125E-005

 -1.16441218980326727E-006  1.32516038227073318E-005  2.62683302637509649E-005
  1.32516038227073318E-005 -2.08251578995885472E-005 -4.65526916168689973E-005
  2.62683302637509649E-005 -4.65526916168689973E-005  8.54343386010273796E-005

  3.96901013176037559E-006 -1.83367957377224137E-005  1.42328639754741309E-005
 -1.83367957377224137E-005  2.97082726548147524E-006 -8.05513264880803269E-005
  1.42328639754741309E-005 -8.05513264880803269E-005  7.25263069710891761E-005

  5.62649234280922447E-008 -3.82307579553983266E-005  5.00848041153553380E-006
 -3.82307579553983266E-005  2.60721211345546532E-004 -5.96294426807498991E-004
  5.00848041153553380E-006 -5.96294426807498991E-004 -2.33106061592769609E-004

  6.23285229955179024E-006  1.17795065498583387E-005 -1.78270690138070531E-005
  1.17795065498583387E-005  2.01324632352557184E-004 -3.72021286259510014E-004
 -1.78270690138070531E-005 -3.72021286259510014E-004 -2.08918135240540332E-004

 -1.21846702118355167E-005  8.54817461281489268E-006 -3.01759264314485082E-005
  8.54817461281489268E-006  1.88012109069178156E-004 -2.83455985338446472E-004
 -3.01759264314485082E-005 -2.83455985338446472E-004 -2.32146572022875352E-004

 -1.34384586058268700E-005 -1.62571627746395094E-004  5.48720446028546797E-005
 -1.62571627746395094E-004  1.31545108392185453E-003 -9.40650582326214065E-004
  5.48720446028546797E-005 -9.40650582326214065E-004 -3.55350387438516753E-004

 -1.50731630403358838E-005  5.90921126774539382E-005  7.09234939034299937E-005
  5.90921126774539382E-005  1.27636340127748062E-003 -7.11040802973992442E-004
  7.09234939034299937E-005 -7.11040802973992442E-004 -3.51865075669614055E-004

  2.48519879475533792E-005 -1.48074197729281345E-004  7.66691845619518021E-005
 -1.48074197729281345E-004  1.21134038575763112E-003 -5.97762821638813898E-004
  7.66691845619518021E-005 -5.97762821638813898E-004 -3.62698491870113273E-004

SCALARS fstat float
LOOKUP_TABLE default
   0.0000000000000000     
   0.0000000000000000     
   0.0000000000000000     
   0.0000000000000000     
   0.0000000000000000     
   0.0000000000000000     
   0.0000000000000000     
   0.0000000000000000     
   0.0000000000000000     
SCALARS dm float
LOOKUP_TABLE default
   0.0000000000000000     
   0.0000000000000000     
   0.0000000000000000     
   0.0000000000000000     
   0.0000000000000000     
   0.0000000000000000     
   0.0000000000000000     
   0.0000000000000000     
   0.0000000000000000     
SCALARS u0 float
LOOKUP_TABLE default
   0.0000000000000000     
   0.0000000000000000     
   0.0000000000000000     
   0.0000000000000000     
   0.0000000000000000     
   0.0000000000000000     
   0.0000000000000000     
   0.0000000000000000     
   0.0000000000000000     
SCALARS uf float
LOOKUP_TABLE default
   0.0000000000000000     
   0.0000000000000000     
   0.0000000000000000     
   0.0000000000000000     
   0.0000000000000000     
   0.0000000000000000     
   0.0000000000000000     
   0.0000000000000000     
   0.0000000000000000     
